;; produced by z3_gnatprove.drv ;;
(set-info :smt-lib-version 2.5)
(set-info :source |VC generated by SPARK 2014|)
(set-info :category industrial)
(set-info :status unknown)
;;; generated by SMT-LIB2 driver
;;; SMT-LIB2 driver: bit-vectors, common part
;;; SMT-LIB2: integer arithmetic
(declare-sort us_private 0)

(declare-const us_null_ext__ us_private)

(declare-datatypes ()
  ((int__ref (int__refqtmk (int__content Int)))))

(declare-sort integer 0)

;; "integer'int"
(declare-fun integerqtint (integer) Int)

;; "integer'axiom"
(assert
  (forall ((i integer))
    (and
      (<= (- 2147483648) (integerqtint i))
      (<= (integerqtint i) 2147483647))))

;; "in_range"
(define-fun in_range ((x Int)) Bool
  (and (<= (- 2147483648) x) (<= x 2147483647)))

;; "to_rep"
(define-fun to_rep ((x integer)) Int
  (integerqtint x))

;; "of_rep"
(declare-fun of_rep (Int) integer)

;; "inversion_axiom"
(assert
  (forall ((x integer)) (! (= (of_rep (to_rep x)) x) :pattern ((to_rep x)) )))

;; "range_axiom"
(assert
  (forall ((x integer)) (! (in_range (to_rep x)) :pattern ((to_rep x)) )))

;; "coerce_axiom"
(assert
  (forall ((x Int))
    (! (=> (in_range x) (= (to_rep (of_rep x)) x)) :pattern ((to_rep
                                                               (of_rep x))) )))

;; "in_range"
(define-fun in_range1 ((x Int)) Bool
  (and (<= 0 x) (<= x 2147483647)))

;; "in_range"
(define-fun in_range2 ((x Int)) Bool
  (and (<= 1 x) (<= x 1000000)))

(declare-datatypes ()
  ((t (tqtmk (rec__first integer)(rec__last integer)))))

;; "dynamic_property"
(define-fun dynamic_property ((range_first Int) (range_last Int) (low Int) (high Int)) Bool
  (and
    (in_range low)
    (and
      (in_range high)
      (=> (<= low high) (and (in_range2 low) (in_range2 high))))))

(declare-datatypes ()
  ((us_t (us_tqtmk (elts (Array Int integer))(rt t)))))

;; "to_array"
(define-fun to_array ((a us_t)) (Array Int integer)
  (elts a))

;; "first"
(define-fun first ((a us_t)) Int
  (to_rep (rec__first (rt a))))

;; "last"
(define-fun last ((a us_t)) Int
  (to_rep (rec__last (rt a))))

(declare-const value__size Int)

(declare-const object__size Int)

(declare-const component__size Int)

(declare-const alignment Int)

;; "value__size_axiom"
(assert (<= 0 value__size))

;; "object__size_axiom"
(assert (<= 0 object__size))

;; "component__size_axiom"
(assert (<= 0 component__size))

;; "alignment_axiom"
(assert (<= 0 alignment))

(declare-const a us_t)

(declare-const x Int)

(declare-const y Int)

;; "dynamic_invariant"
(define-fun dynamic_invariant ((temp___expr_181 us_t) (temp___is_init_177 Bool) (temp___skip_constant_178 Bool) (temp___do_toplevel_179 Bool) (temp___do_typ_inv_180 Bool)) Bool
  (=>
    (not (= temp___skip_constant_178 true))
    (dynamic_property
      1
      1000000
      (first temp___expr_181)
      (last temp___expr_181))))

(declare-const l Int)

;; "l'unused"
(define-fun lqtunused () int__ref
  (int__refqtmk l))

;; "Assume"
(assert (dynamic_invariant a true false true true))

;; "Assume"
(assert (in_range x))

;; "Assume"
(assert (in_range y))

;; "Assume"
(assert
  (and
    (and (<= (first a) x) (<= x (last a)))
    (and (<= (first a) y) (<= y (last a)))))

;; "temp___195"
(define-fun temp___195 () Bool
  (ite (= x y) true false))

;; "infix ='result'unused"
(define-fun infix_eqqtresultqtunused () Bool
  temp___195)

;; "Assert"
(assert (and (<= (first a) y) (<= y (last a))))

;; "o"
(define-fun o () (Array Int integer)
  (to_array a))

;; "to_array'result'unused"
(define-fun to_arrayqtresultqtunused () (Array Int integer)
  o)

;; "o"
(define-fun o1 () integer
  (select o y))

;; "get'result'unused"
(define-fun getqtresultqtunused () integer
  o1)

(declare-const o2 Int)

;; "Ensures"
(assert (= (to_rep o1) o2))

;; "to_rep'result'unused"
(define-fun to_repqtresultqtunused () Int
  o2)

;; "Assert"
(assert (and (<= (first a) x) (<= x (last a))))

;; "o"
(define-fun o3 () (Array Int integer)
  (to_array a))

;; "to_array'result'unused"
(define-fun to_arrayqtresultqtunused1 () (Array Int integer)
  o3)

;; "o"
(define-fun o4 () integer
  (select o3 x))

;; "get'result'unused"
(define-fun getqtresultqtunused1 () integer
  o4)

(declare-const o5 Int)

;; "Ensures"
(assert (= (to_rep o4) o5))

;; "to_rep'result'unused"
(define-fun to_repqtresultqtunused1 () Int
  o5)

;; "infix ='result'unused"
(define-fun infix_eqqtresultqtunused1 () Bool
  (ite (= o5 o2) true false))

;; "o"
(define-fun o6 () Bool
  (or (ite (= o5 o2) false true) temp___195))

;; "orb'result'unused"
(define-fun orbqtresultqtunused () Bool
  o6)

;; "Assume"
(assert true)

;; "Assume"
(assert (in_range1 l))

(declare-const l1 Int)

;; "l'unused"
(define-fun lqtunused1 () int__ref
  (int__refqtmk l1))

;; "H"
(assert (= l1 0))

(declare-const l2 Int)

;; "l'unused"
(define-fun lqtunused2 () int__ref
  (int__refqtmk l2))

(declare-const o7 Int)

;; "H"
(assert (= o7 (last a)))

(declare-const lastqtresultqtunused Int)

;; "H"
(assert (= lastqtresultqtunused o7))

(declare-const int__contentqtresultqtunused Int)

;; "H"
(assert (= int__contentqtresultqtunused l1))

(declare-const o8 Int)

;; "H"
(assert (= o8 (+ x l1)))

(declare-const infix_plqtresultqtunused Int)

;; "H"
(assert (= infix_plqtresultqtunused o8))

;; "Ensures"
(assert (in_range o8))

(declare-const range_check_qtresultqtunused Int)

;; "H"
(assert (= range_check_qtresultqtunused o8))

(declare-const infix_lseqqtresultqtunused Bool)

;; "H"
(assert (= infix_lseqqtresultqtunused (ite (<= o8 o7) true false)))

(declare-const o9 Bool)

(declare-const o10 Int)

(declare-const lastqtresultqtunused1 Int)

(declare-const int__contentqtresultqtunused1 Int)

(declare-const o11 Int)

(declare-const infix_plqtresultqtunused1 Int)

(declare-const range_check_qtresultqtunused1 Int)

(declare-const infix_lseqqtresultqtunused1 Bool)

;; "H"
(assert
  (ite (<= o8 o7)
    (and
      (= o10 (last a))
      (and
        (= lastqtresultqtunused1 o10)
        (and
          (= int__contentqtresultqtunused1 l1)
          (and
            (= o11 (+ y l1))
            (and
              (= infix_plqtresultqtunused1 o11)
              (and
                (in_range o11)
                (and
                  (= range_check_qtresultqtunused1 o11)
                  (and
                    (= o9 (ite (<= o11 o10) true false))
                    (= infix_lseqqtresultqtunused1 o9)))))))))
    (= o9 false)))

(declare-const o12 Bool)

(declare-const int__contentqtresultqtunused2 Int)

(declare-const o13 Int)

(declare-const infix_plqtresultqtunused2 Int)

(declare-const range_check_qtresultqtunused2 Int)

(declare-const o14 (Array Int integer))

(declare-const to_arrayqtresultqtunused2 (Array Int integer))

(declare-const o15 integer)

(declare-const getqtresultqtunused2 integer)

(declare-const o16 Int)

(declare-const to_repqtresultqtunused2 Int)

(declare-const int__contentqtresultqtunused3 Int)

(declare-const o17 Int)

(declare-const infix_plqtresultqtunused3 Int)

(declare-const range_check_qtresultqtunused3 Int)

(declare-const o18 (Array Int integer))

(declare-const to_arrayqtresultqtunused3 (Array Int integer))

(declare-const o19 integer)

(declare-const getqtresultqtunused3 integer)

(declare-const o20 Int)

(declare-const to_repqtresultqtunused3 Int)

(declare-const infix_eqqtresultqtunused2 Bool)

;; "H"
(assert
  (ite (= o9 true)
    (and
      (= int__contentqtresultqtunused2 l1)
      (and
        (= o13 (+ y l1))
        (and
          (= infix_plqtresultqtunused2 o13)
          (and
            (in_range o13)
            (and
              (= range_check_qtresultqtunused2 o13)
              (and
                (and (<= (first a) o13) (<= o13 (last a)))
                (and
                  (= o14 (to_array a))
                  (and
                    (= to_arrayqtresultqtunused2 o14)
                    (and
                      (= o15 (select o14 o13))
                      (and
                        (= getqtresultqtunused2 o15)
                        (and
                          (= (to_rep o15) o16)
                          (and
                            (= to_repqtresultqtunused2 o16)
                            (and
                              (= int__contentqtresultqtunused3 l1)
                              (and
                                (= o17 (+ x l1))
                                (and
                                  (= infix_plqtresultqtunused3 o17)
                                  (and
                                    (in_range o17)
                                    (and
                                      (= range_check_qtresultqtunused3 
                                      o17)
                                      (and
                                        (and
                                          (<= (first a) o17)
                                          (<= o17 (last a)))
                                        (and
                                          (= o18 (to_array a))
                                          (and
                                            (= to_arrayqtresultqtunused3 
                                            o18)
                                            (and
                                              (= o19 (select o18 o17))
                                              (and
                                                (= getqtresultqtunused3 
                                                o19)
                                                (and
                                                  (= (to_rep o19) o20)
                                                  (and
                                                    (= to_repqtresultqtunused3 
                                                    o20)
                                                    (and
                                                      (= o12 (ite (= 
                                                               o20 o16)
                                                               true
                                                               false))
                                                      (= infix_eqqtresultqtunused2 
                                                      o12))))))))))))))))))))))))))
    (= o12 false)))

(declare-const temp___loop_entry_199qtunused Int)

(declare-const int__contentqtresultqtunused4 Int)

(declare-const usfqtunused Bool)

(declare-const anyqtresultqtunused Bool)

(declare-const l3 Int)

(declare-const lqtunused3 int__ref)

(declare-const loop_var___4038qtunused Int)

(declare-const int__contentqtresultqtunused5 Int)

(declare-const int__contentqtresultqtunused6 Int)

(declare-const o21 Int)

(declare-const infix_plqtresultqtunused4 Int)

(declare-const range_check_qtresultqtunused4 Int)

(declare-const o22 Bool)

(declare-const o23 Bool)

(declare-const int__contentqtresultqtunused7 Int)

(declare-const o24 Int)

(declare-const infix_plqtresultqtunused5 Int)

(declare-const range_check_qtresultqtunused5 Int)

(declare-const o25 (Array Int integer))

(declare-const to_arrayqtresultqtunused4 (Array Int integer))

(declare-const o26 integer)

(declare-const getqtresultqtunused4 integer)

(declare-const o27 Int)

(declare-const to_repqtresultqtunused4 Int)

(declare-const int__contentqtresultqtunused8 Int)

(declare-const o28 Int)

(declare-const infix_plqtresultqtunused6 Int)

(declare-const range_check_qtresultqtunused6 Int)

(declare-const o29 (Array Int integer))

(declare-const to_arrayqtresultqtunused5 (Array Int integer))

(declare-const o30 integer)

(declare-const getqtresultqtunused5 integer)

(declare-const o31 Int)

(declare-const to_repqtresultqtunused5 Int)

(declare-const infix_eqqtresultqtunused3 Bool)

(declare-const o32 Int)

(declare-const lastqtresultqtunused2 Int)

(declare-const int__contentqtresultqtunused9 Int)

(declare-const o33 Int)

(declare-const infix_plqtresultqtunused7 Int)

(declare-const range_check_qtresultqtunused7 Int)

(declare-const infix_lseqqtresultqtunused2 Bool)

(declare-const o34 Int)

(declare-const lastqtresultqtunused3 Int)

(declare-const int__contentqtresultqtunused10 Int)

(declare-const o35 Int)

(declare-const infix_plqtresultqtunused8 Int)

(declare-const range_check_qtresultqtunused8 Int)

(declare-const infix_lseqqtresultqtunused3 Bool)

(declare-const usf Int)

(declare-const anyqtresultqtunused1 Int)

(declare-const kqtunused Int)

(declare-const int__contentqtresultqtunused11 Int)

(declare-const o36 Int)

(declare-const infix_mnqtresultqtunused Int)

(declare-const o37 Bool)

(declare-const infix_lseqqtresultqtunused4 Bool)

(declare-const o38 Bool)

(declare-const infix_lseqqtresultqtunused5 Bool)

(declare-const andbqtresultqtunused Bool)

;; "H"
(assert
  (ite (= o12 true)
    (and
      (= temp___loop_entry_199qtunused l1)
      (and
        (= int__contentqtresultqtunused4 l1)
        (and
          (and
            (= anyqtresultqtunused1 usf)
            (and
              (= kqtunused usf)
              (and
                (= int__contentqtresultqtunused11 l1)
                (and
                  (= o36 (- l1 1))
                  (and
                    (= infix_mnqtresultqtunused o36)
                    (and
                      (= o37 (ite (<= usf o36) true false))
                      (and
                        (= infix_lseqqtresultqtunused4 o37)
                        (and
                          (= o38 (ite (<= 0 usf) true false))
                          (and
                            (= infix_lseqqtresultqtunused5 o38)
                            (= andbqtresultqtunused (and o38 o37)))))))))))
          (and
            (= usfqtunused (ite (forall ((k Int))
                                  (=>
                                    (and (<= 0 k) (<= k (- l1 1)))
                                    (= (to_rep (select (to_array a) (+ x k))) 
                                    (to_rep
                                      (select (to_array a) (+ y k))))))
                             true
                             false))
            (and
              (= anyqtresultqtunused (ite (forall ((k Int))
                                            (=>
                                              (and (<= 0 k) (<= k (- l1 1)))
                                              (= (to_rep
                                                   (select (to_array a) (+ 
                                                   x k))) (to_rep
                                                            (select (to_array
                                                                    a) (+ 
                                                            y k))))))
                                       true
                                       false))
              (and
                (= lqtunused3 (int__refqtmk l3))
                (and
                  (forall ((k Int))
                    (=>
                      (and (<= 0 k) (<= k (- l3 1)))
                      (= (to_rep (select (to_array a) (+ x k))) (to_rep
                                                                  (select 
                                                                  (to_array
                                                                    a) (+ 
                                                                  y k))))))
                  (and
                    (= loop_var___4038qtunused l3)
                    (and
                      (= int__contentqtresultqtunused5 l3)
                      (and
                        (= (and (ite (in_range1 l3) true false) (ite 
                                                                  (and
                                                                    (and
                                                                    (<= (+ 
                                                                    x l3) 
                                                                    (last
                                                                    a))
                                                                    (<= (+ 
                                                                    y l3) 
                                                                    (last
                                                                    a)))
                                                                    (= 
                                                                    (to_rep
                                                                    (select 
                                                                    (to_array
                                                                    a) (+ 
                                                                    x l3))) 
                                                                    (to_rep
                                                                    (select 
                                                                    (to_array
                                                                    a) (+ 
                                                                    y l3)))))
                                                                  true
                                                                  false)) true)
                        (and
                          (= int__contentqtresultqtunused6 l3)
                          (and
                            (= o21 (+ l3 1))
                            (and
                              (= infix_plqtresultqtunused4 o21)
                              (and
                                (in_range o21)
                                (and
                                  (= range_check_qtresultqtunused4 o21)
                                  (and
                                    (= l2 o21)
                                    (and
                                      (and
                                        (and
                                          (= o32 (last a))
                                          (and
                                            (= lastqtresultqtunused2 
                                            o32)
                                            (and
                                              (= int__contentqtresultqtunused9 
                                              l2)
                                              (and
                                                (= o33 (+ x l2))
                                                (and
                                                  (= infix_plqtresultqtunused7 
                                                  o33)
                                                  (and
                                                    (in_range o33)
                                                    (and
                                                      (= range_check_qtresultqtunused7 
                                                      o33)
                                                      (and
                                                        (= infix_lseqqtresultqtunused2 
                                                        (ite (<= o33 
                                                          o32)
                                                          true
                                                          false))
                                                        (ite (<= o33 
                                                          o32)
                                                          (and
                                                            (= o34 (last a))
                                                            (and
                                                              (= lastqtresultqtunused3 
                                                              o34)
                                                              (and
                                                                (= int__contentqtresultqtunused10 
                                                                l2)
                                                                (and
                                                                  (= 
                                                                  o35 (+ 
                                                                  y l2))
                                                                  (and
                                                                    (= 
                                                                    infix_plqtresultqtunused8 
                                                                    o35)
                                                                    (and
                                                                    (in_range
                                                                    o35)
                                                                    (and
                                                                    (= 
                                                                    range_check_qtresultqtunused8 
                                                                    o35)
                                                                    (and
                                                                    (= 
                                                                    o23 
                                                                    (ite (<= 
                                                                    o35 
                                                                    o34)
                                                                    true
                                                                    false))
                                                                    (= 
                                                                    infix_lseqqtresultqtunused3 
                                                                    o23)))))))))
                                                          (= o23 false))))))))))
                                        (ite (= o23 true)
                                          (and
                                            (= int__contentqtresultqtunused7 
                                            l2)
                                            (and
                                              (= o24 (+ y l2))
                                              (and
                                                (= infix_plqtresultqtunused5 
                                                o24)
                                                (and
                                                  (in_range o24)
                                                  (and
                                                    (= range_check_qtresultqtunused5 
                                                    o24)
                                                    (and
                                                      (and
                                                        (<= (first a) 
                                                        o24)
                                                        (<= o24 (last a)))
                                                      (and
                                                        (= o25 (to_array a))
                                                        (and
                                                          (= to_arrayqtresultqtunused4 
                                                          o25)
                                                          (and
                                                            (= o26 (select 
                                                            o25 o24))
                                                            (and
                                                              (= getqtresultqtunused4 
                                                              o26)
                                                              (and
                                                                (= (to_rep
                                                                    o26) 
                                                                o27)
                                                                (and
                                                                  (= 
                                                                  to_repqtresultqtunused4 
                                                                  o27)
                                                                  (and
                                                                    (= 
                                                                    int__contentqtresultqtunused8 
                                                                    l2)
                                                                    (and
                                                                    (= 
                                                                    o28 (+ 
                                                                    x l2))
                                                                    (and
                                                                    (= 
                                                                    infix_plqtresultqtunused6 
                                                                    o28)
                                                                    (and
                                                                    (in_range
                                                                    o28)
                                                                    (and
                                                                    (= 
                                                                    range_check_qtresultqtunused6 
                                                                    o28)
                                                                    (and
                                                                    (and
                                                                    (<= 
                                                                    (first
                                                                    a) 
                                                                    o28)
                                                                    (<= 
                                                                    o28 
                                                                    (last
                                                                    a)))
                                                                    (and
                                                                    (= 
                                                                    o29 
                                                                    (to_array
                                                                    a))
                                                                    (and
                                                                    (= 
                                                                    to_arrayqtresultqtunused5 
                                                                    o29)
                                                                    (and
                                                                    (= 
                                                                    o30 (select 
                                                                    o29 
                                                                    o28))
                                                                    (and
                                                                    (= 
                                                                    getqtresultqtunused5 
                                                                    o30)
                                                                    (and
                                                                    (= 
                                                                    (to_rep
                                                                    o30) 
                                                                    o31)
                                                                    (and
                                                                    (= 
                                                                    to_repqtresultqtunused5 
                                                                    o31)
                                                                    (and
                                                                    (= 
                                                                    o22 
                                                                    (ite (= 
                                                                    o31 
                                                                    o27)
                                                                    true
                                                                    false))
                                                                    (= 
                                                                    infix_eqqtresultqtunused3 
                                                                    o22))))))))))))))))))))))))))
                                          (= o22 false)))
                                      (not (= o22 true)))))))))))))))))))
    (= l2 l1)))

;; "int__content'result'unused"
(define-fun int__contentqtresultqtunused12 () Int
  l2)

(declare-const lcp__result Int)

;; "lcp__result'unused"
(define-fun lcp__resultqtunused () int__ref
  (int__refqtmk lcp__result))

;; "H"
(assert (= lcp__result l2))

;; "Assert"
(assert (=> (not (= o5 o2)) (= lcp__result 0)))

;; "Assert"
(assert (=> (= x y) (= lcp__result (+ (- (last a) x) 1))))

;; "Assert"
(assert (=> (not (= o6 true)) (< 0 lcp__result)))

;; "result'unused"
(define-fun resultqtunused () Int
  lcp__result)

;; "int__content'result'unused"
(define-fun int__contentqtresultqtunused13 () Int
  lcp__result)

(declare-const k Int)

;; "H"
(assert (<= 0 k))

;; "H"
(assert (<= k (- lcp__result 1)))

;; Goal "def'vc"
;; File "lcp.ads", line 10, characters 0-0
(assert
  (not
  (= (to_rep (select (to_array a) (+ x k))) (to_rep
                                              (select (to_array a) (+ 
                                              y k))))))

(check-sat)
